
Gurobi 12.0.1 (linux64, gurobi_cl) logging started Sun May 25 13:09:13 2025

Set parameter WLSAccessID
Set parameter WLSSecret
Set parameter LicenseID to value 2620036
Set parameter TimeLimit to value 9000
Set parameter LogFile to value "gurobi.log"
Using license file /opt/gurobi1201/gurobi.lic
